max_w = 20;
max_h = 10;
max_links = 6;
COMPONENT = {Q1, J1, R1, R2, R3, R4, C1, C2};
allowed_orientation = [
  Q1: {Upright, UpsideDown},
  J1: {Upright, UpsideDown},
  R1: ORIENTATION,
  R2: ORIENTATION,
  R3: ORIENTATION,
  R4: ORIENTATION,
  C1: ORIENTATION,
  C2: ORIENTATION
];
PIN = {
  Q1_C, Q1_B, Q1_E,
  J1_VCC, J1_GND, J1_IN, J1_OUT,
  R1_1, R1_2,
  R2_1, R2_2,
  R3_1, R3_2,
  R4_1, R4_2,
  C1_1, C1_2,
  C2_1, C2_2
};
NET = {VCC, GND, N1, N2, N3, N4};
footprint_w = [Q1: 1, J1: 1, R1: 1, R2: 1, R3: 1, R4: 1, C1: 3, C2: 3];
footprint_h = [Q1: 3, J1: 4, R1: 5, R2: 5, R3: 5, R4: 5, C1: 3, C2: 3];
pin_dx = [
  Q1_C: 1, Q1_B: 1, Q1_E: 1,
  J1_VCC: 1, J1_GND: 1, J1_IN: 1, J1_OUT: 1,
  R1_1: 1, R1_2: 1,
  R2_1: 1, R2_2: 1,
  R3_1: 1, R3_2: 1,
  R4_1: 1, R4_2: 1,
  C1_1: 2, C1_2: 2,
  C2_1: 2, C2_2: 2
];
pin_dy = [
  Q1_C: 1, Q1_B: 2, Q1_E: 3,
  J1_VCC: 1, J1_GND: 2, J1_IN: 3, J1_OUT: 4,
  R1_1: 1, R1_2: 3,
  R2_1: 1, R2_2: 3,
  R3_1: 1, R3_2: 3,
  R4_1: 1, R4_2: 3,
  C1_1: 1, C1_2: 3,
  C2_1: 1, C2_2: 3
];
pin_net = [
  Q1_C: N3, Q1_B: N2, Q1_E: N4,
  J1_VCC: VCC, J1_GND: GND, J1_IN: N1, J1_OUT: N3,
  R1_1: VCC, R1_2: N2,
  R2_1: GND, R2_2: N2,
  R3_1: VCC, R3_2: N3,
  R4_1: GND, R4_2: N4,
  C1_1: GND, C1_2: N4,
  C2_1: N1, C2_2: N2
];
pins = [
  Q1: Q1_C..Q1_E,
  J1: J1_VCC..J1_OUT,
  R1: R1_1..R1_2,
  R2: R2_1..R2_2,
  R3: R3_1..R3_2,
  R4: R4_1..R4_2,
  C1: C1_1..C1_2,
  C2: C2_1..C2_2
];
